Au 
 1.0000000000000000
    -7.2965580000000001    4.5065609999999996    0.0000000000000000
    -7.2965580000000001   -4.5065609999999996    0.0000000000000000
    -0.9088540000000001    0.0000000000000000   23.6336289999999991
Au 
  27
Selective dynamics
Direct
  0.2012443479975134  0.2012442817072120  0.6065802224220099   T   T   T
  0.2012312857300321  0.5345639166194541  0.6065710935070147   T   T   T
  0.2012415680743808  0.8679069742738424  0.6065648384704849   T   T   T
  0.5345638830539532  0.2012312880628336  0.6065711233837648   T   T   T
  0.5345832444605375  0.5345832131540392  0.6065762682077865   T   T   T
  0.5345748275527603  0.8679014055208979  0.6065816900514965   T   T   T
  0.8679069876856086  0.2012415397257184  0.6065647804651557   T   T   T
  0.8679014104098944  0.5345748084511542  0.6065817310094704   T   T   T
  0.8679285075339849  0.8679284452531733  0.6065892526747604   T   T   T
  0.0002716314702149  0.3336380380458727  0.5033904302784342   T   T   T
  0.0002788837211326  0.6669527949814098  0.5034000250067836   T   T   T
  0.0002974401306201  0.0002973788547381  0.5033781374239348   T   T   T
  0.3336138169023595  0.3336138083000833  0.5033958895426677   T   T   T
  0.3336372084344956  0.6669232019437449  0.5033977638226734   T   T   T
  0.3336380246212632  0.0002716486087525  0.5033904347705984   T   T   T
  0.6669232211831797  0.3336372146130890  0.5033977654022053   T   T   T
  0.6669508070411584  0.6669507465667066  0.5034038317936040   T   T   T
  0.6669528309348360  0.0002788670121098  0.5034000143691992   T   T   T
  0.1333330000000000  0.1333330000000000  0.4000000000000000   F   F   F
  0.1333330000000009  0.4666660000000001  0.4000000000000000   F   F   F
  0.1333330000000001  0.8000000000000012  0.4000000000000000   F   F   F
  0.4666660000000001  0.1333330000000009  0.4000000000000000   F   F   F
  0.4666670000000003  0.4666670000000003  0.4000000000000000   F   F   F
  0.4666670000000001  0.8000000000000000  0.4000000000000000   F   F   F
  0.8000000000000007  0.1333330000000010  0.4000000000000000   F   F   F
  0.8000000000000002  0.4666670000000000  0.4000000000000000   F   F   F
  0.7999999999999996  0.8000000000000006  0.4000000000000000   F   F   F
