 O  C 
 1.0000000000000000
    10.0000000000000000    0.0000000000000000    0.0000000000000000
     0.0000000000000000   10.0000000000000000    0.0000000000000000
     0.0000000000000000    0.0000000000000000   10.0000000000000000
 O  C 
   1   1
Cartesian
 -0.1307000000000000 -0.1316000000000000  1.2446999999999999
  0.0000000000000000  0.0000000000000000  0.0000000000000000
