Au  O  C 
 1.0000000000000000
    -7.2965580000000001    4.5065609999999996    0.0000000000000000
    -7.2965580000000001   -4.5065609999999996    0.0000000000000000
    -0.9088540000000001    0.0000000000000000   23.6336289999999991
 Au  O   C  
  27   1   1
Selective dynamics
Direct
  0.2034672874479508  0.2042464494642009  0.6056590089568070   T   T   T
  0.1963209437692802  0.5392298363154062  0.6038652568175009   T   T   T
  0.1955734406764569  0.8763953945229308  0.6044010955510341   T   T   T
  0.5383800359603317  0.1974585580128831  0.6037873260422182   T   T   T
  0.5343769013511271  0.5362258664246070  0.6064422147028518   T   T   T
  0.5314242187451397  0.8755873124777379  0.6039084240009243   T   T   T
  0.8756949447346646  0.1962416001006408  0.6043558042170826   T   T   T
  0.8745058794275749  0.5321843420877240  0.6038985047853218   T   T   T
  0.8670968276967589  0.8678618660561167  0.6048903016902853   T   T   T
  0.0004117553477227  0.3331478734486997  0.5019216739887016   T   T   T
  0.0000603223908989  0.6686981155918985  0.5011715016936641   T   T   T
  0.0001365841303141  0.0004217459352912  0.5011283011836031   T   T   T
  0.3327893021352484  0.3333166658147155  0.5022728904650007   T   T   T
  0.3366464257600286  0.6647392605014895  0.5041775332488344   T   T   T
  0.3327694157932736  0.0008628311648291  0.5019133571715793   T   T   T
  0.6643492098931634  0.3369651972416793  0.5041833552073105   T   T   T
  0.6664673132348868  0.6668676393602431  0.5037301650018510   T   T   T
  0.6683568410086538  0.0004226815675869  0.5011691973648559   T   T   T
  0.1333330000000000  0.1333330000000000  0.4000000000000000   F   F   F
  0.1333330000000008  0.4666660000000001  0.4000000000000000   F   F   F
  0.1333330000000005  0.8000000000000006  0.4000000000000000   F   F   F
  0.4666660000000001  0.1333330000000006  0.4000000000000000   F   F   F
  0.4666670000000003  0.4666670000000003  0.4000000000000000   F   F   F
  0.4666670000000001  0.8000000000000000  0.4000000000000000   F   F   F
  0.8000000000000006  0.1333330000000006  0.4000000000000000   F   F   F
  0.8000000000000002  0.4666670000000000  0.4000000000000000   F   F   F
  0.7999999999999996  0.8000000000000006  0.4000000000000000   F   F   F
  0.5190531218907092  0.5147795042211060  0.8397320449826094   T   T   T
  0.5278267364919309  0.5260212271419090  0.7914794796723298   F   F   F
